p cnf 525 1783
c p weight 210 -1 0
c p weight -210 1 0
c p weight 212 6.12323399573676603586882014729198302312846062338790031898128063403419218957424163818359375E-17 0
c p weight -212 1 0
c p weight 213 1 0
c p weight -213 1 0
c p weight 214 -1 0
c p weight -214 1 0
c p weight 216 -1 0
c p weight -216 1 0
c p weight 219 -1 0
c p weight -219 1 0
c p weight 222 -1 0
c p weight -222 1 0
c p weight 225 -1 0
c p weight -225 1 0
c p weight 228 -1 0
c p weight -228 1 0
c p weight 231 -1 0
c p weight -231 1 0
c p weight 234 -1 0
c p weight -234 1 0
c p weight 237 -1 0
c p weight -237 1 0
c p weight 240 -1 0
c p weight -240 1 0
c p weight 243 -1 0
c p weight -243 1 0
c p weight 246 -1 0
c p weight -246 1 0
c p weight 249 -1 0
c p weight -249 1 0
c p weight 252 -1 0
c p weight -252 1 0
c p weight 255 -1 0
c p weight -255 1 0
c p weight 258 -1 0
c p weight -258 1 0
c p weight 261 -1 0
c p weight -261 1 0
c p weight 264 -1 0
c p weight -264 1 0
c p weight 267 -1 0
c p weight -267 1 0
c p weight 270 -1 0
c p weight -270 1 0
c p weight 273 -1 0
c p weight -273 1 0
c p weight 276 -1 0
c p weight -276 1 0
c p weight 279 -1 0
c p weight -279 1 0
c p weight 282 -1 0
c p weight -282 1 0
c p weight 285 -1 0
c p weight -285 1 0
c p weight 288 -1 0
c p weight -288 1 0
c p weight 291 -1 0
c p weight -291 1 0
c p weight 294 -1 0
c p weight -294 1 0
c p weight 297 -1 0
c p weight -297 1 0
c p weight 300 -1 0
c p weight -300 1 0
c p weight 303 -1 0
c p weight -303 1 0
c p weight 306 -1 0
c p weight -306 1 0
c p weight 309 -1 0
c p weight -309 1 0
c p weight 312 -1 0
c p weight -312 1 0
c p weight 315 -1 0
c p weight -315 1 0
c p weight 318 -1 0
c p weight -318 1 0
c p weight 321 -1 0
c p weight -321 1 0
c p weight 324 -1 0
c p weight -324 1 0
c p weight 327 -1 0
c p weight -327 1 0
c p weight 330 -1 0
c p weight -330 1 0
c p weight 333 -1 0
c p weight -333 1 0
c p weight 336 -1 0
c p weight -336 1 0
c p weight 339 -1 0
c p weight -339 1 0
c p weight 342 -1 0
c p weight -342 1 0
c p weight 345 -1 0
c p weight -345 1 0
c p weight 348 -1 0
c p weight -348 1 0
c p weight 351 -1 0
c p weight -351 1 0
c p weight 354 -1 0
c p weight -354 1 0
c p weight 357 -1 0
c p weight -357 1 0
c p weight 360 -1 0
c p weight -360 1 0
c p weight 363 -1 0
c p weight -363 1 0
c p weight 366 -1 0
c p weight -366 1 0
c p weight 369 -1 0
c p weight -369 1 0
c p weight 372 -1 0
c p weight -372 1 0
c p weight 375 -1 0
c p weight -375 1 0
c p weight 378 -1 0
c p weight -378 1 0
c p weight 381 -1 0
c p weight -381 1 0
c p weight 384 -1 0
c p weight -384 1 0
c p weight 387 -1 0
c p weight -387 1 0
c p weight 390 -1 0
c p weight -390 1 0
c p weight 393 -1 0
c p weight -393 1 0
c p weight 396 -1 0
c p weight -396 1 0
c p weight 399 -1 0
c p weight -399 1 0
c p weight 402 -1 0
c p weight -402 1 0
c p weight 405 -1 0
c p weight -405 1 0
c p weight 408 -1 0
c p weight -408 1 0
c p weight 411 -1 0
c p weight -411 1 0
c p weight 414 -1 0
c p weight -414 1 0
c p weight 417 -1 0
c p weight -417 1 0
c p weight 420 -1 0
c p weight -420 1 0
c p weight 423 -1 0
c p weight -423 1 0
c p weight 426 -1 0
c p weight -426 1 0
c p weight 429 -1 0
c p weight -429 1 0
c p weight 432 -1 0
c p weight -432 1 0
c p weight 435 -1 0
c p weight -435 1 0
c p weight 438 -1 0
c p weight -438 1 0
c p weight 441 -1 0
c p weight -441 1 0
c p weight 444 -1 0
c p weight -444 1 0
c p weight 447 -1 0
c p weight -447 1 0
c p weight 450 -1 0
c p weight -450 1 0
c p weight 453 -1 0
c p weight -453 1 0
c p weight 456 -1 0
c p weight -456 1 0
c p weight 459 -1 0
c p weight -459 1 0
c p weight 462 -1 0
c p weight -462 1 0
c p weight 465 -1 0
c p weight -465 1 0
c p weight 468 -1 0
c p weight -468 1 0
c p weight 471 -1 0
c p weight -471 1 0
c p weight 474 -1 0
c p weight -474 1 0
c p weight 477 -1 0
c p weight -477 1 0
c p weight 480 -1 0
c p weight -480 1 0
c p weight 483 -1 0
c p weight -483 1 0
c p weight 486 -1 0
c p weight -486 1 0
c p weight 489 -1 0
c p weight -489 1 0
c p weight 492 -1 0
c p weight -492 1 0
c p weight 495 -1 0
c p weight -495 1 0
c p weight 498 -1 0
c p weight -498 1 0
c p weight 501 -1 0
c p weight -501 1 0
c p weight 504 -1 0
c p weight -504 1 0
c p weight 507 -1 0
c p weight -507 1 0
c p weight 510 -1 0
c p weight -510 1 0
c p weight 513 -1 0
c p weight -513 1 0
c p weight 516 -1 0
c p weight -516 1 0
c p weight 519 -1 0
c p weight -519 1 0
c p weight 522 -1 0
c p weight -522 1 0
c p weight 525 -1 0
c p weight -525 1 0
-207 0
-205 0
-203 0
-201 0
-199 0
-197 0
-195 0
-193 0
-191 0
-189 0
-187 0
-185 0
-183 0
-181 0
-179 0
-177 0
-175 0
-173 0
-171 0
-169 0
-167 0
-165 0
-163 0
-161 0
-159 0
-157 0
-155 0
-153 0
-151 0
-149 0
-147 0
-145 0
-143 0
-141 0
-139 0
-137 0
-135 0
-133 0
-131 0
-129 0
-127 0
-125 0
-123 0
-121 0
-119 0
-117 0
-115 0
-113 0
-111 0
-109 0
-107 0
-105 0
-103 0
-101 0
-99 0
-97 0
-95 0
-93 0
-91 0
-89 0
-87 0
-85 0
-83 0
-81 0
-79 0
-77 0
-75 0
-73 0
-71 0
-69 0
-67 0
-65 0
-63 0
-61 0
-59 0
-57 0
-55 0
-53 0
-51 0
-49 0
-47 0
-45 0
-43 0
-41 0
-39 0
-37 0
-35 0
-33 0
-31 0
-29 0
-27 0
-25 0
-23 0
-21 0
-19 0
-17 0
-15 0
-13 0
-11 0
-9 0
-7 0
-5 0
-3 0
-1 0
209 207 -208 0
209 -207 208 0
-209 207 208 0
-209 -207 -208 0
-210 207 0
-210 208 0
210 -207 -208 0
211 -207 209 0
-211 207 209 0
-212 209 0
211 -212 -207 0
-211 -212 207 0
211 212 207 -209 0
-211 212 -207 -209 0
-213 209 0
211 -213 207 0
-211 -213 -207 0
211 213 -207 -209 0
-211 213 207 -209 0
-214 211 0
-214 209 0
-214 -207 0
214 -211 207 -209 0
215 211 -209 0
215 -211 209 0
-215 211 209 0
-215 -211 -209 0
-216 211 0
-216 209 0
216 -211 -209 0
217 211 -205 0
217 -211 205 0
-217 211 205 0
-217 -211 -205 0
218 215 -206 0
218 -215 206 0
-218 215 206 0
-218 -215 -206 0
-219 211 0
-219 206 0
-219 205 -215 0
-219 -205 215 0
219 -211 205 215 -206 0
219 -211 -205 -215 -206 0
220 217 -203 0
220 -217 203 0
-220 217 203 0
-220 -217 -203 0
221 206 -204 0
221 -206 204 0
-221 206 204 0
-221 -206 -204 0
-222 217 0
-222 204 0
-222 203 -206 0
-222 -203 206 0
222 -217 203 206 -204 0
222 -217 -203 -206 -204 0
223 220 -201 0
223 -220 201 0
-223 220 201 0
-223 -220 -201 0
224 204 -202 0
224 -204 202 0
-224 204 202 0
-224 -204 -202 0
-225 220 0
-225 202 0
-225 201 -204 0
-225 -201 204 0
225 -220 201 204 -202 0
225 -220 -201 -204 -202 0
226 223 -199 0
226 -223 199 0
-226 223 199 0
-226 -223 -199 0
227 202 -200 0
227 -202 200 0
-227 202 200 0
-227 -202 -200 0
-228 223 0
-228 200 0
-228 199 -202 0
-228 -199 202 0
228 -223 199 202 -200 0
228 -223 -199 -202 -200 0
229 226 -197 0
229 -226 197 0
-229 226 197 0
-229 -226 -197 0
230 200 -198 0
230 -200 198 0
-230 200 198 0
-230 -200 -198 0
-231 226 0
-231 198 0
-231 197 -200 0
-231 -197 200 0
231 -226 197 200 -198 0
231 -226 -197 -200 -198 0
232 229 -195 0
232 -229 195 0
-232 229 195 0
-232 -229 -195 0
233 198 -196 0
233 -198 196 0
-233 198 196 0
-233 -198 -196 0
-234 229 0
-234 196 0
-234 195 -198 0
-234 -195 198 0
234 -229 195 198 -196 0
234 -229 -195 -198 -196 0
235 232 -193 0
235 -232 193 0
-235 232 193 0
-235 -232 -193 0
236 196 -194 0
236 -196 194 0
-236 196 194 0
-236 -196 -194 0
-237 232 0
-237 194 0
-237 193 -196 0
-237 -193 196 0
237 -232 193 196 -194 0
237 -232 -193 -196 -194 0
238 235 -191 0
238 -235 191 0
-238 235 191 0
-238 -235 -191 0
239 194 -192 0
239 -194 192 0
-239 194 192 0
-239 -194 -192 0
-240 235 0
-240 192 0
-240 191 -194 0
-240 -191 194 0
240 -235 191 194 -192 0
240 -235 -191 -194 -192 0
241 238 -189 0
241 -238 189 0
-241 238 189 0
-241 -238 -189 0
242 192 -190 0
242 -192 190 0
-242 192 190 0
-242 -192 -190 0
-243 238 0
-243 190 0
-243 189 -192 0
-243 -189 192 0
243 -238 189 192 -190 0
243 -238 -189 -192 -190 0
244 241 -187 0
244 -241 187 0
-244 241 187 0
-244 -241 -187 0
245 190 -188 0
245 -190 188 0
-245 190 188 0
-245 -190 -188 0
-246 241 0
-246 188 0
-246 187 -190 0
-246 -187 190 0
246 -241 187 190 -188 0
246 -241 -187 -190 -188 0
247 244 -185 0
247 -244 185 0
-247 244 185 0
-247 -244 -185 0
248 188 -186 0
248 -188 186 0
-248 188 186 0
-248 -188 -186 0
-249 244 0
-249 186 0
-249 185 -188 0
-249 -185 188 0
249 -244 185 188 -186 0
249 -244 -185 -188 -186 0
250 247 -183 0
250 -247 183 0
-250 247 183 0
-250 -247 -183 0
251 186 -184 0
251 -186 184 0
-251 186 184 0
-251 -186 -184 0
-252 247 0
-252 184 0
-252 183 -186 0
-252 -183 186 0
252 -247 183 186 -184 0
252 -247 -183 -186 -184 0
253 250 -181 0
253 -250 181 0
-253 250 181 0
-253 -250 -181 0
254 184 -182 0
254 -184 182 0
-254 184 182 0
-254 -184 -182 0
-255 250 0
-255 182 0
-255 181 -184 0
-255 -181 184 0
255 -250 181 184 -182 0
255 -250 -181 -184 -182 0
256 253 -179 0
256 -253 179 0
-256 253 179 0
-256 -253 -179 0
257 182 -180 0
257 -182 180 0
-257 182 180 0
-257 -182 -180 0
-258 253 0
-258 180 0
-258 179 -182 0
-258 -179 182 0
258 -253 179 182 -180 0
258 -253 -179 -182 -180 0
259 256 -177 0
259 -256 177 0
-259 256 177 0
-259 -256 -177 0
260 180 -178 0
260 -180 178 0
-260 180 178 0
-260 -180 -178 0
-261 256 0
-261 178 0
-261 177 -180 0
-261 -177 180 0
261 -256 177 180 -178 0
261 -256 -177 -180 -178 0
262 259 -175 0
262 -259 175 0
-262 259 175 0
-262 -259 -175 0
263 178 -176 0
263 -178 176 0
-263 178 176 0
-263 -178 -176 0
-264 259 0
-264 176 0
-264 175 -178 0
-264 -175 178 0
264 -259 175 178 -176 0
264 -259 -175 -178 -176 0
265 262 -173 0
265 -262 173 0
-265 262 173 0
-265 -262 -173 0
266 176 -174 0
266 -176 174 0
-266 176 174 0
-266 -176 -174 0
-267 262 0
-267 174 0
-267 173 -176 0
-267 -173 176 0
267 -262 173 176 -174 0
267 -262 -173 -176 -174 0
268 265 -171 0
268 -265 171 0
-268 265 171 0
-268 -265 -171 0
269 174 -172 0
269 -174 172 0
-269 174 172 0
-269 -174 -172 0
-270 265 0
-270 172 0
-270 171 -174 0
-270 -171 174 0
270 -265 171 174 -172 0
270 -265 -171 -174 -172 0
271 268 -169 0
271 -268 169 0
-271 268 169 0
-271 -268 -169 0
272 172 -170 0
272 -172 170 0
-272 172 170 0
-272 -172 -170 0
-273 268 0
-273 170 0
-273 169 -172 0
-273 -169 172 0
273 -268 169 172 -170 0
273 -268 -169 -172 -170 0
274 271 -167 0
274 -271 167 0
-274 271 167 0
-274 -271 -167 0
275 170 -168 0
275 -170 168 0
-275 170 168 0
-275 -170 -168 0
-276 271 0
-276 168 0
-276 167 -170 0
-276 -167 170 0
276 -271 167 170 -168 0
276 -271 -167 -170 -168 0
277 274 -165 0
277 -274 165 0
-277 274 165 0
-277 -274 -165 0
278 168 -166 0
278 -168 166 0
-278 168 166 0
-278 -168 -166 0
-279 274 0
-279 166 0
-279 165 -168 0
-279 -165 168 0
279 -274 165 168 -166 0
279 -274 -165 -168 -166 0
280 277 -163 0
280 -277 163 0
-280 277 163 0
-280 -277 -163 0
281 166 -164 0
281 -166 164 0
-281 166 164 0
-281 -166 -164 0
-282 277 0
-282 164 0
-282 163 -166 0
-282 -163 166 0
282 -277 163 166 -164 0
282 -277 -163 -166 -164 0
283 280 -161 0
283 -280 161 0
-283 280 161 0
-283 -280 -161 0
284 164 -162 0
284 -164 162 0
-284 164 162 0
-284 -164 -162 0
-285 280 0
-285 162 0
-285 161 -164 0
-285 -161 164 0
285 -280 161 164 -162 0
285 -280 -161 -164 -162 0
286 283 -159 0
286 -283 159 0
-286 283 159 0
-286 -283 -159 0
287 162 -160 0
287 -162 160 0
-287 162 160 0
-287 -162 -160 0
-288 283 0
-288 160 0
-288 159 -162 0
-288 -159 162 0
288 -283 159 162 -160 0
288 -283 -159 -162 -160 0
289 286 -157 0
289 -286 157 0
-289 286 157 0
-289 -286 -157 0
290 160 -158 0
290 -160 158 0
-290 160 158 0
-290 -160 -158 0
-291 286 0
-291 158 0
-291 157 -160 0
-291 -157 160 0
291 -286 157 160 -158 0
291 -286 -157 -160 -158 0
292 289 -155 0
292 -289 155 0
-292 289 155 0
-292 -289 -155 0
293 158 -156 0
293 -158 156 0
-293 158 156 0
-293 -158 -156 0
-294 289 0
-294 156 0
-294 155 -158 0
-294 -155 158 0
294 -289 155 158 -156 0
294 -289 -155 -158 -156 0
295 292 -153 0
295 -292 153 0
-295 292 153 0
-295 -292 -153 0
296 156 -154 0
296 -156 154 0
-296 156 154 0
-296 -156 -154 0
-297 292 0
-297 154 0
-297 153 -156 0
-297 -153 156 0
297 -292 153 156 -154 0
297 -292 -153 -156 -154 0
298 295 -151 0
298 -295 151 0
-298 295 151 0
-298 -295 -151 0
299 154 -152 0
299 -154 152 0
-299 154 152 0
-299 -154 -152 0
-300 295 0
-300 152 0
-300 151 -154 0
-300 -151 154 0
300 -295 151 154 -152 0
300 -295 -151 -154 -152 0
301 298 -149 0
301 -298 149 0
-301 298 149 0
-301 -298 -149 0
302 152 -150 0
302 -152 150 0
-302 152 150 0
-302 -152 -150 0
-303 298 0
-303 150 0
-303 149 -152 0
-303 -149 152 0
303 -298 149 152 -150 0
303 -298 -149 -152 -150 0
304 301 -147 0
304 -301 147 0
-304 301 147 0
-304 -301 -147 0
305 150 -148 0
305 -150 148 0
-305 150 148 0
-305 -150 -148 0
-306 301 0
-306 148 0
-306 147 -150 0
-306 -147 150 0
306 -301 147 150 -148 0
306 -301 -147 -150 -148 0
307 304 -145 0
307 -304 145 0
-307 304 145 0
-307 -304 -145 0
308 148 -146 0
308 -148 146 0
-308 148 146 0
-308 -148 -146 0
-309 304 0
-309 146 0
-309 145 -148 0
-309 -145 148 0
309 -304 145 148 -146 0
309 -304 -145 -148 -146 0
310 307 -143 0
310 -307 143 0
-310 307 143 0
-310 -307 -143 0
311 146 -144 0
311 -146 144 0
-311 146 144 0
-311 -146 -144 0
-312 307 0
-312 144 0
-312 143 -146 0
-312 -143 146 0
312 -307 143 146 -144 0
312 -307 -143 -146 -144 0
313 310 -141 0
313 -310 141 0
-313 310 141 0
-313 -310 -141 0
314 144 -142 0
314 -144 142 0
-314 144 142 0
-314 -144 -142 0
-315 310 0
-315 142 0
-315 141 -144 0
-315 -141 144 0
315 -310 141 144 -142 0
315 -310 -141 -144 -142 0
316 313 -139 0
316 -313 139 0
-316 313 139 0
-316 -313 -139 0
317 142 -140 0
317 -142 140 0
-317 142 140 0
-317 -142 -140 0
-318 313 0
-318 140 0
-318 139 -142 0
-318 -139 142 0
318 -313 139 142 -140 0
318 -313 -139 -142 -140 0
319 316 -137 0
319 -316 137 0
-319 316 137 0
-319 -316 -137 0
320 140 -138 0
320 -140 138 0
-320 140 138 0
-320 -140 -138 0
-321 316 0
-321 138 0
-321 137 -140 0
-321 -137 140 0
321 -316 137 140 -138 0
321 -316 -137 -140 -138 0
322 319 -135 0
322 -319 135 0
-322 319 135 0
-322 -319 -135 0
323 138 -136 0
323 -138 136 0
-323 138 136 0
-323 -138 -136 0
-324 319 0
-324 136 0
-324 135 -138 0
-324 -135 138 0
324 -319 135 138 -136 0
324 -319 -135 -138 -136 0
325 322 -133 0
325 -322 133 0
-325 322 133 0
-325 -322 -133 0
326 136 -134 0
326 -136 134 0
-326 136 134 0
-326 -136 -134 0
-327 322 0
-327 134 0
-327 133 -136 0
-327 -133 136 0
327 -322 133 136 -134 0
327 -322 -133 -136 -134 0
328 325 -131 0
328 -325 131 0
-328 325 131 0
-328 -325 -131 0
329 134 -132 0
329 -134 132 0
-329 134 132 0
-329 -134 -132 0
-330 325 0
-330 132 0
-330 131 -134 0
-330 -131 134 0
330 -325 131 134 -132 0
330 -325 -131 -134 -132 0
331 328 -129 0
331 -328 129 0
-331 328 129 0
-331 -328 -129 0
332 132 -130 0
332 -132 130 0
-332 132 130 0
-332 -132 -130 0
-333 328 0
-333 130 0
-333 129 -132 0
-333 -129 132 0
333 -328 129 132 -130 0
333 -328 -129 -132 -130 0
334 331 -127 0
334 -331 127 0
-334 331 127 0
-334 -331 -127 0
335 130 -128 0
335 -130 128 0
-335 130 128 0
-335 -130 -128 0
-336 331 0
-336 128 0
-336 127 -130 0
-336 -127 130 0
336 -331 127 130 -128 0
336 -331 -127 -130 -128 0
337 334 -125 0
337 -334 125 0
-337 334 125 0
-337 -334 -125 0
338 128 -126 0
338 -128 126 0
-338 128 126 0
-338 -128 -126 0
-339 334 0
-339 126 0
-339 125 -128 0
-339 -125 128 0
339 -334 125 128 -126 0
339 -334 -125 -128 -126 0
340 337 -123 0
340 -337 123 0
-340 337 123 0
-340 -337 -123 0
341 126 -124 0
341 -126 124 0
-341 126 124 0
-341 -126 -124 0
-342 337 0
-342 124 0
-342 123 -126 0
-342 -123 126 0
342 -337 123 126 -124 0
342 -337 -123 -126 -124 0
343 340 -121 0
343 -340 121 0
-343 340 121 0
-343 -340 -121 0
344 124 -122 0
344 -124 122 0
-344 124 122 0
-344 -124 -122 0
-345 340 0
-345 122 0
-345 121 -124 0
-345 -121 124 0
345 -340 121 124 -122 0
345 -340 -121 -124 -122 0
346 343 -119 0
346 -343 119 0
-346 343 119 0
-346 -343 -119 0
347 122 -120 0
347 -122 120 0
-347 122 120 0
-347 -122 -120 0
-348 343 0
-348 120 0
-348 119 -122 0
-348 -119 122 0
348 -343 119 122 -120 0
348 -343 -119 -122 -120 0
349 346 -117 0
349 -346 117 0
-349 346 117 0
-349 -346 -117 0
350 120 -118 0
350 -120 118 0
-350 120 118 0
-350 -120 -118 0
-351 346 0
-351 118 0
-351 117 -120 0
-351 -117 120 0
351 -346 117 120 -118 0
351 -346 -117 -120 -118 0
352 349 -115 0
352 -349 115 0
-352 349 115 0
-352 -349 -115 0
353 118 -116 0
353 -118 116 0
-353 118 116 0
-353 -118 -116 0
-354 349 0
-354 116 0
-354 115 -118 0
-354 -115 118 0
354 -349 115 118 -116 0
354 -349 -115 -118 -116 0
355 352 -113 0
355 -352 113 0
-355 352 113 0
-355 -352 -113 0
356 116 -114 0
356 -116 114 0
-356 116 114 0
-356 -116 -114 0
-357 352 0
-357 114 0
-357 113 -116 0
-357 -113 116 0
357 -352 113 116 -114 0
357 -352 -113 -116 -114 0
358 355 -111 0
358 -355 111 0
-358 355 111 0
-358 -355 -111 0
359 114 -112 0
359 -114 112 0
-359 114 112 0
-359 -114 -112 0
-360 355 0
-360 112 0
-360 111 -114 0
-360 -111 114 0
360 -355 111 114 -112 0
360 -355 -111 -114 -112 0
361 358 -109 0
361 -358 109 0
-361 358 109 0
-361 -358 -109 0
362 112 -110 0
362 -112 110 0
-362 112 110 0
-362 -112 -110 0
-363 358 0
-363 110 0
-363 109 -112 0
-363 -109 112 0
363 -358 109 112 -110 0
363 -358 -109 -112 -110 0
364 361 -107 0
364 -361 107 0
-364 361 107 0
-364 -361 -107 0
365 110 -108 0
365 -110 108 0
-365 110 108 0
-365 -110 -108 0
-366 361 0
-366 108 0
-366 107 -110 0
-366 -107 110 0
366 -361 107 110 -108 0
366 -361 -107 -110 -108 0
367 364 -105 0
367 -364 105 0
-367 364 105 0
-367 -364 -105 0
368 108 -106 0
368 -108 106 0
-368 108 106 0
-368 -108 -106 0
-369 364 0
-369 106 0
-369 105 -108 0
-369 -105 108 0
369 -364 105 108 -106 0
369 -364 -105 -108 -106 0
370 367 -103 0
370 -367 103 0
-370 367 103 0
-370 -367 -103 0
371 106 -104 0
371 -106 104 0
-371 106 104 0
-371 -106 -104 0
-372 367 0
-372 104 0
-372 103 -106 0
-372 -103 106 0
372 -367 103 106 -104 0
372 -367 -103 -106 -104 0
373 370 -101 0
373 -370 101 0
-373 370 101 0
-373 -370 -101 0
374 104 -102 0
374 -104 102 0
-374 104 102 0
-374 -104 -102 0
-375 370 0
-375 102 0
-375 101 -104 0
-375 -101 104 0
375 -370 101 104 -102 0
375 -370 -101 -104 -102 0
376 373 -99 0
376 -373 99 0
-376 373 99 0
-376 -373 -99 0
377 102 -100 0
377 -102 100 0
-377 102 100 0
-377 -102 -100 0
-378 373 0
-378 100 0
-378 99 -102 0
-378 -99 102 0
378 -373 99 102 -100 0
378 -373 -99 -102 -100 0
379 376 -97 0
379 -376 97 0
-379 376 97 0
-379 -376 -97 0
380 100 -98 0
380 -100 98 0
-380 100 98 0
-380 -100 -98 0
-381 376 0
-381 98 0
-381 97 -100 0
-381 -97 100 0
381 -376 97 100 -98 0
381 -376 -97 -100 -98 0
382 379 -95 0
382 -379 95 0
-382 379 95 0
-382 -379 -95 0
383 98 -96 0
383 -98 96 0
-383 98 96 0
-383 -98 -96 0
-384 379 0
-384 96 0
-384 95 -98 0
-384 -95 98 0
384 -379 95 98 -96 0
384 -379 -95 -98 -96 0
385 382 -93 0
385 -382 93 0
-385 382 93 0
-385 -382 -93 0
386 96 -94 0
386 -96 94 0
-386 96 94 0
-386 -96 -94 0
-387 382 0
-387 94 0
-387 93 -96 0
-387 -93 96 0
387 -382 93 96 -94 0
387 -382 -93 -96 -94 0
388 385 -91 0
388 -385 91 0
-388 385 91 0
-388 -385 -91 0
389 94 -92 0
389 -94 92 0
-389 94 92 0
-389 -94 -92 0
-390 385 0
-390 92 0
-390 91 -94 0
-390 -91 94 0
390 -385 91 94 -92 0
390 -385 -91 -94 -92 0
391 388 -89 0
391 -388 89 0
-391 388 89 0
-391 -388 -89 0
392 92 -90 0
392 -92 90 0
-392 92 90 0
-392 -92 -90 0
-393 388 0
-393 90 0
-393 89 -92 0
-393 -89 92 0
393 -388 89 92 -90 0
393 -388 -89 -92 -90 0
394 391 -87 0
394 -391 87 0
-394 391 87 0
-394 -391 -87 0
395 90 -88 0
395 -90 88 0
-395 90 88 0
-395 -90 -88 0
-396 391 0
-396 88 0
-396 87 -90 0
-396 -87 90 0
396 -391 87 90 -88 0
396 -391 -87 -90 -88 0
397 394 -85 0
397 -394 85 0
-397 394 85 0
-397 -394 -85 0
398 88 -86 0
398 -88 86 0
-398 88 86 0
-398 -88 -86 0
-399 394 0
-399 86 0
-399 85 -88 0
-399 -85 88 0
399 -394 85 88 -86 0
399 -394 -85 -88 -86 0
400 397 -83 0
400 -397 83 0
-400 397 83 0
-400 -397 -83 0
401 86 -84 0
401 -86 84 0
-401 86 84 0
-401 -86 -84 0
-402 397 0
-402 84 0
-402 83 -86 0
-402 -83 86 0
402 -397 83 86 -84 0
402 -397 -83 -86 -84 0
403 400 -81 0
403 -400 81 0
-403 400 81 0
-403 -400 -81 0
404 84 -82 0
404 -84 82 0
-404 84 82 0
-404 -84 -82 0
-405 400 0
-405 82 0
-405 81 -84 0
-405 -81 84 0
405 -400 81 84 -82 0
405 -400 -81 -84 -82 0
406 403 -79 0
406 -403 79 0
-406 403 79 0
-406 -403 -79 0
407 82 -80 0
407 -82 80 0
-407 82 80 0
-407 -82 -80 0
-408 403 0
-408 80 0
-408 79 -82 0
-408 -79 82 0
408 -403 79 82 -80 0
408 -403 -79 -82 -80 0
409 406 -77 0
409 -406 77 0
-409 406 77 0
-409 -406 -77 0
410 80 -78 0
410 -80 78 0
-410 80 78 0
-410 -80 -78 0
-411 406 0
-411 78 0
-411 77 -80 0
-411 -77 80 0
411 -406 77 80 -78 0
411 -406 -77 -80 -78 0
412 409 -75 0
412 -409 75 0
-412 409 75 0
-412 -409 -75 0
413 78 -76 0
413 -78 76 0
-413 78 76 0
-413 -78 -76 0
-414 409 0
-414 76 0
-414 75 -78 0
-414 -75 78 0
414 -409 75 78 -76 0
414 -409 -75 -78 -76 0
415 412 -73 0
415 -412 73 0
-415 412 73 0
-415 -412 -73 0
416 76 -74 0
416 -76 74 0
-416 76 74 0
-416 -76 -74 0
-417 412 0
-417 74 0
-417 73 -76 0
-417 -73 76 0
417 -412 73 76 -74 0
417 -412 -73 -76 -74 0
418 415 -71 0
418 -415 71 0
-418 415 71 0
-418 -415 -71 0
419 74 -72 0
419 -74 72 0
-419 74 72 0
-419 -74 -72 0
-420 415 0
-420 72 0
-420 71 -74 0
-420 -71 74 0
420 -415 71 74 -72 0
420 -415 -71 -74 -72 0
421 418 -69 0
421 -418 69 0
-421 418 69 0
-421 -418 -69 0
422 72 -70 0
422 -72 70 0
-422 72 70 0
-422 -72 -70 0
-423 418 0
-423 70 0
-423 69 -72 0
-423 -69 72 0
423 -418 69 72 -70 0
423 -418 -69 -72 -70 0
424 421 -67 0
424 -421 67 0
-424 421 67 0
-424 -421 -67 0
425 70 -68 0
425 -70 68 0
-425 70 68 0
-425 -70 -68 0
-426 421 0
-426 68 0
-426 67 -70 0
-426 -67 70 0
426 -421 67 70 -68 0
426 -421 -67 -70 -68 0
427 424 -65 0
427 -424 65 0
-427 424 65 0
-427 -424 -65 0
428 68 -66 0
428 -68 66 0
-428 68 66 0
-428 -68 -66 0
-429 424 0
-429 66 0
-429 65 -68 0
-429 -65 68 0
429 -424 65 68 -66 0
429 -424 -65 -68 -66 0
430 427 -63 0
430 -427 63 0
-430 427 63 0
-430 -427 -63 0
431 66 -64 0
431 -66 64 0
-431 66 64 0
-431 -66 -64 0
-432 427 0
-432 64 0
-432 63 -66 0
-432 -63 66 0
432 -427 63 66 -64 0
432 -427 -63 -66 -64 0
433 430 -61 0
433 -430 61 0
-433 430 61 0
-433 -430 -61 0
434 64 -62 0
434 -64 62 0
-434 64 62 0
-434 -64 -62 0
-435 430 0
-435 62 0
-435 61 -64 0
-435 -61 64 0
435 -430 61 64 -62 0
435 -430 -61 -64 -62 0
436 433 -59 0
436 -433 59 0
-436 433 59 0
-436 -433 -59 0
437 62 -60 0
437 -62 60 0
-437 62 60 0
-437 -62 -60 0
-438 433 0
-438 60 0
-438 59 -62 0
-438 -59 62 0
438 -433 59 62 -60 0
438 -433 -59 -62 -60 0
439 436 -57 0
439 -436 57 0
-439 436 57 0
-439 -436 -57 0
440 60 -58 0
440 -60 58 0
-440 60 58 0
-440 -60 -58 0
-441 436 0
-441 58 0
-441 57 -60 0
-441 -57 60 0
441 -436 57 60 -58 0
441 -436 -57 -60 -58 0
442 439 -55 0
442 -439 55 0
-442 439 55 0
-442 -439 -55 0
443 58 -56 0
443 -58 56 0
-443 58 56 0
-443 -58 -56 0
-444 439 0
-444 56 0
-444 55 -58 0
-444 -55 58 0
444 -439 55 58 -56 0
444 -439 -55 -58 -56 0
445 442 -53 0
445 -442 53 0
-445 442 53 0
-445 -442 -53 0
446 56 -54 0
446 -56 54 0
-446 56 54 0
-446 -56 -54 0
-447 442 0
-447 54 0
-447 53 -56 0
-447 -53 56 0
447 -442 53 56 -54 0
447 -442 -53 -56 -54 0
448 445 -51 0
448 -445 51 0
-448 445 51 0
-448 -445 -51 0
449 54 -52 0
449 -54 52 0
-449 54 52 0
-449 -54 -52 0
-450 445 0
-450 52 0
-450 51 -54 0
-450 -51 54 0
450 -445 51 54 -52 0
450 -445 -51 -54 -52 0
451 448 -49 0
451 -448 49 0
-451 448 49 0
-451 -448 -49 0
452 52 -50 0
452 -52 50 0
-452 52 50 0
-452 -52 -50 0
-453 448 0
-453 50 0
-453 49 -52 0
-453 -49 52 0
453 -448 49 52 -50 0
453 -448 -49 -52 -50 0
454 451 -47 0
454 -451 47 0
-454 451 47 0
-454 -451 -47 0
455 50 -48 0
455 -50 48 0
-455 50 48 0
-455 -50 -48 0
-456 451 0
-456 48 0
-456 47 -50 0
-456 -47 50 0
456 -451 47 50 -48 0
456 -451 -47 -50 -48 0
457 454 -45 0
457 -454 45 0
-457 454 45 0
-457 -454 -45 0
458 48 -46 0
458 -48 46 0
-458 48 46 0
-458 -48 -46 0
-459 454 0
-459 46 0
-459 45 -48 0
-459 -45 48 0
459 -454 45 48 -46 0
459 -454 -45 -48 -46 0
460 457 -43 0
460 -457 43 0
-460 457 43 0
-460 -457 -43 0
461 46 -44 0
461 -46 44 0
-461 46 44 0
-461 -46 -44 0
-462 457 0
-462 44 0
-462 43 -46 0
-462 -43 46 0
462 -457 43 46 -44 0
462 -457 -43 -46 -44 0
463 460 -41 0
463 -460 41 0
-463 460 41 0
-463 -460 -41 0
464 44 -42 0
464 -44 42 0
-464 44 42 0
-464 -44 -42 0
-465 460 0
-465 42 0
-465 41 -44 0
-465 -41 44 0
465 -460 41 44 -42 0
465 -460 -41 -44 -42 0
466 463 -39 0
466 -463 39 0
-466 463 39 0
-466 -463 -39 0
467 42 -40 0
467 -42 40 0
-467 42 40 0
-467 -42 -40 0
-468 463 0
-468 40 0
-468 39 -42 0
-468 -39 42 0
468 -463 39 42 -40 0
468 -463 -39 -42 -40 0
469 466 -37 0
469 -466 37 0
-469 466 37 0
-469 -466 -37 0
470 40 -38 0
470 -40 38 0
-470 40 38 0
-470 -40 -38 0
-471 466 0
-471 38 0
-471 37 -40 0
-471 -37 40 0
471 -466 37 40 -38 0
471 -466 -37 -40 -38 0
472 469 -35 0
472 -469 35 0
-472 469 35 0
-472 -469 -35 0
473 38 -36 0
473 -38 36 0
-473 38 36 0
-473 -38 -36 0
-474 469 0
-474 36 0
-474 35 -38 0
-474 -35 38 0
474 -469 35 38 -36 0
474 -469 -35 -38 -36 0
475 472 -33 0
475 -472 33 0
-475 472 33 0
-475 -472 -33 0
476 36 -34 0
476 -36 34 0
-476 36 34 0
-476 -36 -34 0
-477 472 0
-477 34 0
-477 33 -36 0
-477 -33 36 0
477 -472 33 36 -34 0
477 -472 -33 -36 -34 0
478 475 -31 0
478 -475 31 0
-478 475 31 0
-478 -475 -31 0
479 34 -32 0
479 -34 32 0
-479 34 32 0
-479 -34 -32 0
-480 475 0
-480 32 0
-480 31 -34 0
-480 -31 34 0
480 -475 31 34 -32 0
480 -475 -31 -34 -32 0
481 478 -29 0
481 -478 29 0
-481 478 29 0
-481 -478 -29 0
482 32 -30 0
482 -32 30 0
-482 32 30 0
-482 -32 -30 0
-483 478 0
-483 30 0
-483 29 -32 0
-483 -29 32 0
483 -478 29 32 -30 0
483 -478 -29 -32 -30 0
484 481 -27 0
484 -481 27 0
-484 481 27 0
-484 -481 -27 0
485 30 -28 0
485 -30 28 0
-485 30 28 0
-485 -30 -28 0
-486 481 0
-486 28 0
-486 27 -30 0
-486 -27 30 0
486 -481 27 30 -28 0
486 -481 -27 -30 -28 0
487 484 -25 0
487 -484 25 0
-487 484 25 0
-487 -484 -25 0
488 28 -26 0
488 -28 26 0
-488 28 26 0
-488 -28 -26 0
-489 484 0
-489 26 0
-489 25 -28 0
-489 -25 28 0
489 -484 25 28 -26 0
489 -484 -25 -28 -26 0
490 487 -23 0
490 -487 23 0
-490 487 23 0
-490 -487 -23 0
491 26 -24 0
491 -26 24 0
-491 26 24 0
-491 -26 -24 0
-492 487 0
-492 24 0
-492 23 -26 0
-492 -23 26 0
492 -487 23 26 -24 0
492 -487 -23 -26 -24 0
493 490 -21 0
493 -490 21 0
-493 490 21 0
-493 -490 -21 0
494 24 -22 0
494 -24 22 0
-494 24 22 0
-494 -24 -22 0
-495 490 0
-495 22 0
-495 21 -24 0
-495 -21 24 0
495 -490 21 24 -22 0
495 -490 -21 -24 -22 0
496 493 -19 0
496 -493 19 0
-496 493 19 0
-496 -493 -19 0
497 22 -20 0
497 -22 20 0
-497 22 20 0
-497 -22 -20 0
-498 493 0
-498 20 0
-498 19 -22 0
-498 -19 22 0
498 -493 19 22 -20 0
498 -493 -19 -22 -20 0
499 496 -17 0
499 -496 17 0
-499 496 17 0
-499 -496 -17 0
500 20 -18 0
500 -20 18 0
-500 20 18 0
-500 -20 -18 0
-501 496 0
-501 18 0
-501 17 -20 0
-501 -17 20 0
501 -496 17 20 -18 0
501 -496 -17 -20 -18 0
502 499 -15 0
502 -499 15 0
-502 499 15 0
-502 -499 -15 0
503 18 -16 0
503 -18 16 0
-503 18 16 0
-503 -18 -16 0
-504 499 0
-504 16 0
-504 15 -18 0
-504 -15 18 0
504 -499 15 18 -16 0
504 -499 -15 -18 -16 0
505 502 -13 0
505 -502 13 0
-505 502 13 0
-505 -502 -13 0
506 16 -14 0
506 -16 14 0
-506 16 14 0
-506 -16 -14 0
-507 502 0
-507 14 0
-507 13 -16 0
-507 -13 16 0
507 -502 13 16 -14 0
507 -502 -13 -16 -14 0
508 505 -11 0
508 -505 11 0
-508 505 11 0
-508 -505 -11 0
509 14 -12 0
509 -14 12 0
-509 14 12 0
-509 -14 -12 0
-510 505 0
-510 12 0
-510 11 -14 0
-510 -11 14 0
510 -505 11 14 -12 0
510 -505 -11 -14 -12 0
511 508 -9 0
511 -508 9 0
-511 508 9 0
-511 -508 -9 0
512 12 -10 0
512 -12 10 0
-512 12 10 0
-512 -12 -10 0
-513 508 0
-513 10 0
-513 9 -12 0
-513 -9 12 0
513 -508 9 12 -10 0
513 -508 -9 -12 -10 0
514 511 -7 0
514 -511 7 0
-514 511 7 0
-514 -511 -7 0
515 10 -8 0
515 -10 8 0
-515 10 8 0
-515 -10 -8 0
-516 511 0
-516 8 0
-516 7 -10 0
-516 -7 10 0
516 -511 7 10 -8 0
516 -511 -7 -10 -8 0
517 514 -5 0
517 -514 5 0
-517 514 5 0
-517 -514 -5 0
518 8 -6 0
518 -8 6 0
-518 8 6 0
-518 -8 -6 0
-519 514 0
-519 6 0
-519 5 -8 0
-519 -5 8 0
519 -514 5 8 -6 0
519 -514 -5 -8 -6 0
520 517 -3 0
520 -517 3 0
-520 517 3 0
-520 -517 -3 0
521 6 -4 0
521 -6 4 0
-521 6 4 0
-521 -6 -4 0
-522 517 0
-522 4 0
-522 3 -6 0
-522 -3 6 0
522 -517 3 6 -4 0
522 -517 -3 -6 -4 0
523 520 -1 0
523 -520 1 0
-523 520 1 0
-523 -520 -1 0
524 4 -2 0
524 -4 2 0
-524 4 2 0
-524 -4 -2 0
-525 520 0
-525 2 0
-525 1 -4 0
-525 -1 4 0
525 -520 1 4 -2 0
525 -520 -1 -4 -2 0
-523 0
-520 0
-524 0
-517 0
-521 0
-514 0
-518 0
-511 0
-515 0
-508 0
-512 0
-505 0
-509 0
-502 0
-506 0
-499 0
-503 0
-496 0
-500 0
-493 0
-497 0
-490 0
-494 0
-487 0
-491 0
-484 0
-488 0
-481 0
-485 0
-478 0
-482 0
-475 0
-479 0
-472 0
-476 0
-469 0
-473 0
-466 0
-470 0
-463 0
-467 0
-460 0
-464 0
-457 0
-461 0
-454 0
-458 0
-451 0
-455 0
-448 0
-452 0
-445 0
-449 0
-442 0
-446 0
-439 0
-443 0
-436 0
-440 0
-433 0
-437 0
-430 0
-434 0
-427 0
-431 0
-424 0
-428 0
-421 0
-425 0
-418 0
-422 0
-415 0
-419 0
-412 0
-416 0
-409 0
-413 0
-406 0
-410 0
-403 0
-407 0
-400 0
-404 0
-397 0
-401 0
-394 0
-398 0
-391 0
-395 0
-388 0
-392 0
-385 0
-389 0
-382 0
-386 0
-379 0
-383 0
-376 0
-380 0
-373 0
-377 0
-370 0
-374 0
-367 0
-371 0
-364 0
-368 0
-361 0
-365 0
-358 0
-362 0
-355 0
-359 0
-352 0
-356 0
-349 0
-353 0
-346 0
-350 0
-343 0
-347 0
-340 0
-344 0
-337 0
-341 0
-334 0
-338 0
-331 0
-335 0
-328 0
-332 0
-325 0
-329 0
-322 0
-326 0
-319 0
-323 0
-316 0
-320 0
-313 0
-317 0
-310 0
-314 0
-307 0
-311 0
-304 0
-308 0
-301 0
-305 0
-298 0
-302 0
-295 0
-299 0
-292 0
-296 0
-289 0
-293 0
-286 0
-290 0
-283 0
-287 0
-280 0
-284 0
-277 0
-281 0
-274 0
-278 0
-271 0
-275 0
-268 0
-272 0
-265 0
-269 0
-262 0
-266 0
-259 0
-263 0
-256 0
-260 0
-253 0
-257 0
-250 0
-254 0
-247 0
-251 0
-244 0
-248 0
-241 0
-245 0
-238 0
-242 0
-235 0
-239 0
-232 0
-236 0
-229 0
-233 0
-226 0
-230 0
-223 0
-227 0
-220 0
-224 0
-217 0
-221 0
-211 0
-218 0
